;symbolic execution tree
(push)
(assert (le x12 java.lang.String))
(check-sat)
(push)
(assert (le x11 java.lang.StringBuffer))
(check-sat)
(push)
(assert (le x2 java.lang.String))
(check-sat)
(push)
(assert (le x0 java.lang.StringBuffer))
(check-sat)
(push)
(assert (le x12 java.lang.String))
(check-sat)
(push)
(assert (le x14 java.lang.String))
(check-sat)
(pop)
(push)
(assert (not (le x14 java.lang.String)))
(check-sat)
(pop)
(push)
(assert (le x8 com.lowagie.text.pdf.PdfObject))
(check-sat)
(push)
(assert (le x8 com.lowagie.text.pdf.PdfObject))
(check-sat)
(push)
(assert (le x0 java.lang.StringBuffer))
(check-sat)
(pop)
(push)
(assert (not (le x0 java.lang.StringBuffer)))
(check-sat)
(pop)
(push)
(assert (le x8 com.lowagie.text.pdf.PdfObject))
(check-sat)
(push)
(assert (le x0 java.lang.StringBuffer))
(check-sat)
(pop)
(push)
(assert (not (le x0 java.lang.StringBuffer)))
(check-sat)
(pop)
(push)
(assert (le x8 com.lowagie.text.pdf.PdfObject))
(check-sat)
(push)
(assert (le x8 com.lowagie.text.pdf.PdfObject))
(check-sat)
(pop)
(push)
(assert (not (le x8 com.lowagie.text.pdf.PdfObject)))
(check-sat)
(pop)
(pop)
(push)
(assert (not (le x8 com.lowagie.text.pdf.PdfObject)))
(check-sat)
(pop)
(push)
(assert (le x4 java.lang.String))
(check-sat)
(push)
(assert (le x2 java.lang.String))
(check-sat)
(pop)
(push)
(assert (not (le x2 java.lang.String)))
(check-sat)
(pop)
(push)
(assert (le x10 com.lowagie.text.pdf.ByteBuffer))
(check-sat)
(push)
(assert (le x7 com.lowagie.text.pdf.PdfObject))
(check-sat)
(pop)
(push)
(assert (not (le x7 com.lowagie.text.pdf.PdfObject)))
(check-sat)
(pop)
(pop)
(push)
(assert (not (le x10 com.lowagie.text.pdf.ByteBuffer)))
(check-sat)
(push)
(assert (le x9 com.lowagie.text.pdf.PdfObject))
(check-sat)
(pop)
(push)
(assert (not (le x9 com.lowagie.text.pdf.PdfObject)))
(check-sat)
(pop)
(push)
(assert (le x0 java.lang.StringBuffer))
(check-sat)
(pop)
(push)
(assert (not (le x0 java.lang.StringBuffer)))
(check-sat)
(pop)
(push)
(assert (le x8 com.lowagie.text.pdf.PdfObject))
(check-sat)
(push)
(assert (le x3 java.lang.StringBuffer))
(check-sat)
(pop)
(push)
(assert (not (le x3 java.lang.StringBuffer)))
(check-sat)
(pop)
(pop)
(push)
(assert (not (le x8 com.lowagie.text.pdf.PdfObject)))
(check-sat)
(pop)
(pop)
(pop)
(push)
(assert (not (le x4 java.lang.String)))
(check-sat)
(pop)
(pop)
(push)
(assert (not (le x8 com.lowagie.text.pdf.PdfObject)))
(check-sat)
(pop)
(pop)
(push)
(assert (not (le x8 com.lowagie.text.pdf.PdfObject)))
(check-sat)
(pop)
(push)
(assert (le x1 java.lang.StringBuffer))
(check-sat)
(push)
(assert (le x5 java.lang.StringBuffer))
(check-sat)
(pop)
(push)
(assert (not (le x5 java.lang.StringBuffer)))
(check-sat)
(pop)
(pop)
(push)
(assert (not (le x1 java.lang.StringBuffer)))
(check-sat)
(push)
(assert (le x11 java.lang.StringBuffer))
(check-sat)
(push)
(assert (le x7 java.lang.StringBuffer))
(check-sat)
(pop)
(push)
(assert (not (le x7 java.lang.StringBuffer)))
(check-sat)
(pop)
(push)
(assert (le x5 java.lang.StringBuffer))
(check-sat)
(pop)
(push)
(assert (not (le x5 java.lang.StringBuffer)))
(check-sat)
(pop)
(pop)
(push)
(assert (not (le x11 java.lang.StringBuffer)))
(check-sat)
(pop)
(push)
(assert (le x0 java.lang.StringBuffer))
(check-sat)
(pop)
(push)
(assert (not (le x0 java.lang.StringBuffer)))
(check-sat)
(pop)
(push)
(assert (le x11 java.lang.StringBuffer))
(check-sat)
(push)
(assert (le x6 java.lang.StringBuffer))
(check-sat)
(pop)
(push)
(assert (not (le x6 java.lang.StringBuffer)))
(check-sat)
(push)
(assert (le x15 java.util.HashMap))
(check-sat)
(pop)
(push)
(assert (not (le x15 java.util.HashMap)))
(check-sat)
(pop)
(pop)
(push)
(assert (le x5 java.lang.String))
(check-sat)
(push)
(assert (le x11 java.lang.StringBuffer))
(check-sat)
(pop)
(push)
(assert (not (le x11 java.lang.StringBuffer)))
(check-sat)
(pop)
(push)
(assert (le x8 com.lowagie.text.pdf.PdfObject))
(check-sat)
(pop)
(push)
(assert (not (le x8 com.lowagie.text.pdf.PdfObject)))
(check-sat)
(pop)
(push)
(assert (le x15 java.lang.StringBuffer))
(check-sat)
(push)
(assert (le x15 java.lang.StringBuffer))
(check-sat)
(pop)
(push)
(assert (not (le x15 java.lang.StringBuffer)))
(check-sat)
(pop)
(pop)
(push)
(assert (not (le x15 java.lang.StringBuffer)))
(check-sat)
(pop)
(pop)
(push)
(assert (not (le x5 java.lang.String)))
(check-sat)
(push)
(assert (le x9 java.lang.Integer))
(check-sat)
(pop)
(push)
(assert (not (le x9 java.lang.Integer)))
(check-sat)
(pop)
(pop)
(pop)
(push)
(assert (not (le x11 java.lang.StringBuffer)))
(check-sat)
(pop)
(pop)
(push)
(assert (le x10 com.lowagie.text.pdf.PdfObject))
(check-sat)
(pop)
(push)
(assert (not (le x10 com.lowagie.text.pdf.PdfObject)))
(check-sat)
(push)
(assert (le x11 java.lang.StringBuffer))
(check-sat)
(pop)
(push)
(assert (not (le x11 java.lang.StringBuffer)))
(check-sat)
(pop)
(pop)
(push)
(assert (le x11 java.lang.StringBuffer))
(check-sat)
(push)
(assert (le x8 com.lowagie.text.pdf.PdfObject))
(check-sat)
(pop)
(push)
(assert (not (le x8 com.lowagie.text.pdf.PdfObject)))
(check-sat)
(pop)
(push)
(assert (le x9 com.lowagie.text.pdf.PdfObject))
(check-sat)
(push)
(assert (le x8 com.lowagie.text.pdf.PdfObject))
(check-sat)
(pop)
(push)
(assert (not (le x8 com.lowagie.text.pdf.PdfObject)))
(check-sat)
(pop)
(pop)
(push)
(assert (not (le x9 com.lowagie.text.pdf.PdfObject)))
(check-sat)
(pop)
(pop)
(push)
(assert (not (le x11 java.lang.StringBuffer)))
(check-sat)
(pop)
(push)
(assert (le x12 java.lang.String))
(check-sat)
(push)
(assert (le x1 java.lang.String))
(check-sat)
(pop)
(push)
(assert (not (le x1 java.lang.String)))
(check-sat)
(pop)
(push)
(assert (le x10 java.lang.StringBuffer))
(check-sat)
(pop)
(push)
(assert (not (le x10 java.lang.StringBuffer)))
(check-sat)
(pop)
(push)
(assert (le x10 java.lang.StringBuffer))
(check-sat)
(push)
(assert (not (le x8 com.lowagie.text.pdf.PRStream)))
(check-sat)
(push)
(assert (le x8 com.lowagie.text.pdf.PdfStream))
(check-sat)
(push)
(assert (not (le x8 com.lowagie.text.pdf.PdfEFStream)))
(check-sat)
(push)
(assert (le x3 java.lang.StringBuffer))
(check-sat)
(pop)
(push)
(assert (not (le x3 java.lang.StringBuffer)))
(check-sat)
(pop)
(push)
(assert (le x6 java.lang.StringBuffer))
(check-sat)
(pop)
(push)
(assert (not (le x6 java.lang.StringBuffer)))
(check-sat)
(pop)
(pop)
(pop)
(pop)
(push)
(assert (le x8 com.lowagie.text.pdf.PRIndirectReference))
(check-sat)
(pop)
(push)
(assert (le x8 com.lowagie.text.pdf.PdfEFStream))
(check-sat)
(pop)
(push)
(assert (le x8 com.lowagie.text.pdf.PdfWriter_currencysign_PdfTrailer))
(check-sat)
(pop)
(push)
(assert (not (le x8 com.lowagie.text.pdf.PdfDashPattern)))
(check-sat)
(push)
(assert (le x8 com.lowagie.text.pdf.PdfArray))
(check-sat)
(pop)
(pop)
(push)
(assert (le x8 com.lowagie.text.pdf.PdfOutline))
(check-sat)
(pop)
(push)
(assert (le x8 com.lowagie.text.pdf.PdfString))
(check-sat)
(pop)
(push)
(assert (le x8 com.lowagie.text.pdf.PRStream))
(check-sat)
(pop)
(push)
(assert (le x8 com.lowagie.text.pdf.PdfLiteral))
(check-sat)
(pop)
(push)
(assert (le x8 com.lowagie.text.pdf.PdfDashPattern))
(check-sat)
(pop)
(push)
(assert (not (le x8 com.lowagie.text.pdf.PdfOutline)))
(check-sat)
(push)
(assert (not (le x8 com.lowagie.text.pdf.PdfStream)))
(check-sat)
(push)
(assert (le x8 com.lowagie.text.pdf.PdfDictionary))
(check-sat)
(push)
(assert (not (le x8 com.lowagie.text.pdf.PdfWriter_currencysign_PdfTrailer)))
(check-sat)
(pop)
(pop)
(pop)
(pop)
(push)
(assert (le x8 com.lowagie.text.pdf.PdfObject))
(check-sat)
(push)
(assert (not (le x8 com.lowagie.text.pdf.PdfLiteral)))
(check-sat)
(push)
(assert (not (le x8 com.lowagie.text.pdf.PdfDictionary)))
(check-sat)
(push)
(assert (not (le x8 com.lowagie.text.pdf.PdfString)))
(check-sat)
(push)
(assert (not (le x8 com.lowagie.text.pdf.PdfArray)))
(check-sat)
(pop)
(pop)
(pop)
(pop)
(pop)
(pop)
(push)
(assert (not (le x10 java.lang.StringBuffer)))
(check-sat)
(pop)
(pop)
(push)
(assert (not (le x12 java.lang.String)))
(check-sat)
(pop)
(pop)
(push)
(assert (not (le x8 com.lowagie.text.pdf.PdfObject)))
(check-sat)
(pop)
(pop)
(push)
(assert (not (le x12 java.lang.String)))
(check-sat)
(pop)
(pop)
(push)
(assert (not (le x0 java.lang.StringBuffer)))
(check-sat)
(pop)
(pop)
(push)
(assert (not (le x2 java.lang.String)))
(check-sat)
(pop)
(push)
(assert (le x8 java.lang.String))
(check-sat)
(pop)
(push)
(assert (not (le x8 java.lang.String)))
(check-sat)
(push)
(assert (le x15 com.lowagie.text.pdf.PdfName))
(check-sat)
(pop)
(push)
(assert (not (le x15 com.lowagie.text.pdf.PdfName)))
(check-sat)
(push)
(assert (le x6 com.lowagie.text.pdf.PdfObject))
(check-sat)
(push)
(assert (le x10 java.lang.Integer))
(check-sat)
(pop)
(push)
(assert (not (le x10 java.lang.Integer)))
(check-sat)
(pop)
(push)
(assert (le x8 java.lang.String))
(check-sat)
(pop)
(push)
(assert (not (le x8 java.lang.String)))
(check-sat)
(push)
(assert (le x13 com.lowagie.text.pdf.PdfObject))
(check-sat)
(push)
(assert (le x4 java.lang.StringBuffer))
(check-sat)
(push)
(assert (le x12 java.lang.String))
(check-sat)
(pop)
(push)
(assert (not (le x12 java.lang.String)))
(check-sat)
(pop)
(pop)
(push)
(assert (not (le x4 java.lang.StringBuffer)))
(check-sat)
(push)
(assert (le x9 java.lang.String))
(check-sat)
(pop)
(push)
(assert (not (le x9 java.lang.String)))
(check-sat)
(push)
(assert (le x6 com.lowagie.text.pdf.PdfObject))
(check-sat)
(push)
(assert (le x10 java.lang.StringBuffer))
(check-sat)
(pop)
(push)
(assert (not (le x10 java.lang.StringBuffer)))
(check-sat)
(pop)
(pop)
(push)
(assert (not (le x6 com.lowagie.text.pdf.PdfObject)))
(check-sat)
(pop)
(pop)
(push)
(assert (le x8 java.lang.String))
(check-sat)
(pop)
(push)
(assert (not (le x8 java.lang.String)))
(check-sat)
(push)
(assert (le x5 java.lang.String))
(check-sat)
(pop)
(push)
(assert (not (le x5 java.lang.String)))
(check-sat)
(pop)
(push)
(assert (le x9 com.lowagie.text.pdf.PdfDictionary))
(check-sat)
(pop)
(push)
(assert (not (le x9 com.lowagie.text.pdf.PdfDictionary)))
(check-sat)
(pop)
(pop)
(pop)
(pop)
(push)
(assert (not (le x13 com.lowagie.text.pdf.PdfObject)))
(check-sat)
(push)
(assert (le x9 java.lang.StringBuffer))
(check-sat)
(push)
(assert (le x7 java.lang.StringBuffer))
(check-sat)
(push)
(assert (le x10 java.lang.String))
(check-sat)
(pop)
(push)
(assert (not (le x10 java.lang.String)))
(check-sat)
(pop)
(pop)
(push)
(assert (not (le x7 java.lang.StringBuffer)))
(check-sat)
(pop)
(pop)
(push)
(assert (not (le x9 java.lang.StringBuffer)))
(check-sat)
(pop)
(push)
(assert (le x6 com.lowagie.text.pdf.PdfObject))
(check-sat)
(pop)
(push)
(assert (not (le x6 com.lowagie.text.pdf.PdfObject)))
(check-sat)
(pop)
(pop)
(push)
(assert (le x10 java.lang.String))
(check-sat)
(pop)
(push)
(assert (not (le x10 java.lang.String)))
(check-sat)
(pop)
(push)
(assert (le x15 com.lowagie.text.pdf.PdfName))
(check-sat)
(pop)
(push)
(assert (not (le x15 com.lowagie.text.pdf.PdfName)))
(check-sat)
(push)
(assert (le x4 com.lowagie.text.pdf.PdfDictionary))
(check-sat)
(pop)
(push)
(assert (not (le x4 com.lowagie.text.pdf.PdfDictionary)))
(check-sat)
(pop)
(push)
(assert (le x3 java.lang.StringBuffer))
(check-sat)
(pop)
(push)
(assert (not (le x3 java.lang.StringBuffer)))
(check-sat)
(pop)
(push)
(assert (le x15 java.lang.Object))
(check-sat)
(push)
(assert (le x14 com.lowagie.text.pdf.ByteBuffer))
(check-sat)
(pop)
(push)
(assert (not (le x14 com.lowagie.text.pdf.ByteBuffer)))
(check-sat)
(push)
(assert (le x4 java.lang.StringBuffer))
(check-sat)
(pop)
(push)
(assert (not (le x4 java.lang.StringBuffer)))
(check-sat)
(push)
(assert (le x8 java.lang.String))
(check-sat)
(pop)
(push)
(assert (not (le x8 java.lang.String)))
(check-sat)
(pop)
(push)
(assert (le x8 java.lang.String))
(check-sat)
(pop)
(push)
(assert (not (le x8 java.lang.String)))
(check-sat)
(pop)
(pop)
(pop)
(push)
(assert (le x7 com.lowagie.text.pdf.PdfObject))
(check-sat)
(pop)
(push)
(assert (not (le x7 com.lowagie.text.pdf.PdfObject)))
(check-sat)
(push)
(assert (le x4 java.lang.StringBuffer))
(check-sat)
(pop)
(push)
(assert (not (le x4 java.lang.StringBuffer)))
(check-sat)
(pop)
(pop)
(push)
(assert (le x2 java.lang.String))
(check-sat)
(push)
(assert (le x10 java.lang.StringBuffer))
(check-sat)
(pop)
(push)
(assert (not (le x10 java.lang.StringBuffer)))
(check-sat)
(pop)
(push)
(assert (le x14 java.lang.String))
(check-sat)
(push)
(assert (le x11 java.lang.StringBuffer))
(check-sat)
(pop)
(push)
(assert (not (le x11 java.lang.StringBuffer)))
(check-sat)
(pop)
(push)
(assert (le x4 java.lang.StringBuffer))
(check-sat)
(pop)
(push)
(assert (not (le x4 java.lang.StringBuffer)))
(check-sat)
(push)
(assert (le x14 java.lang.String))
(check-sat)
(pop)
(push)
(assert (not (le x14 java.lang.String)))
(check-sat)
(pop)
(pop)
(pop)
(push)
(assert (not (le x14 java.lang.String)))
(check-sat)
(push)
(assert (le x4 com.lowagie.text.pdf.PdfName))
(check-sat)
(pop)
(push)
(assert (not (le x4 com.lowagie.text.pdf.PdfName)))
(check-sat)
(push)
(assert (le x9 java.lang.StringBuffer))
(check-sat)
(push)
(assert (le x12 java.lang.String))
(check-sat)
(pop)
(push)
(assert (not (le x12 java.lang.String)))
(check-sat)
(pop)
(pop)
(push)
(assert (not (le x9 java.lang.StringBuffer)))
(check-sat)
(pop)
(push)
(assert (le x11 java.lang.StringBuffer))
(check-sat)
(pop)
(push)
(assert (not (le x11 java.lang.StringBuffer)))
(check-sat)
(pop)
(pop)
(pop)
(push)
(assert (le x9 com.lowagie.text.pdf.PdfName))
(check-sat)
(pop)
(push)
(assert (not (le x9 com.lowagie.text.pdf.PdfName)))
(check-sat)
(pop)
(pop)
(push)
(assert (not (le x2 java.lang.String)))
(check-sat)
(pop)
(push)
(assert (le x5 java.lang.StringBuffer))
(check-sat)
(pop)
(push)
(assert (not (le x5 java.lang.StringBuffer)))
(check-sat)
(pop)
(push)
(assert (le x3 java.lang.Integer))
(check-sat)
(push)
(assert (le x0 java.lang.StringBuffer))
(check-sat)
(pop)
(push)
(assert (not (le x0 java.lang.StringBuffer)))
(check-sat)
(pop)
(push)
(assert (le x10 java.lang.StringBuffer))
(check-sat)
(push)
(assert (le x12 java.lang.String))
(check-sat)
(pop)
(push)
(assert (not (le x12 java.lang.String)))
(check-sat)
(pop)
(pop)
(push)
(assert (not (le x10 java.lang.StringBuffer)))
(check-sat)
(pop)
(pop)
(push)
(assert (not (le x3 java.lang.Integer)))
(check-sat)
(pop)
(push)
(assert (le x15 java.text.NumberFormat))
(check-sat)
(push)
(assert (not (le x15 java.text.DecimalFormat)))
(check-sat)
(pop)
(pop)
(push)
(assert (le x15 java.awt.RenderingHints))
(check-sat)
(pop)
(push)
(assert (le x15 java.net.URL))
(check-sat)
(pop)
(push)
(assert (le x15 java.lang.reflect.Constructor))
(check-sat)
(pop)
(push)
(assert (le x15 java.security.Permission))
(check-sat)
(pop)
(push)
(assert (le x15 org.bouncycastle.x509.AttributeCertificateHolder))
(check-sat)
(pop)
(push)
(assert (le x15 org.bouncycastle.math.ec.SimpleBigDecimal))
(check-sat)
(pop)
(push)
(assert (le x15 java.text.AttributedCharacterIterator_currencysign_Attribute))
(check-sat)
(pop)
(push)
(assert (le x15 java.lang.reflect.Field))
(check-sat)
(pop)
(push)
(assert (le x15 org.dom4j.Namespace))
(check-sat)
(pop)
(push)
(assert (le x15 org.bouncycastle.math.ec.ECPoint))
(check-sat)
(pop)
(push)
(assert (le x15 java.awt.geom.Arc2D))
(check-sat)
(pop)
(push)
(assert (le x15 org.bouncycastle.math.ec.ECCurve_currencysign_Fp))
(check-sat)
(pop)
(push)
(assert (le x15 org.bouncycastle.jce.spec.GOST3410ParameterSpec))
(check-sat)
(pop)
(push)
(assert (le x15 javax.security.auth.x500.X500Principal))
(check-sat)
(pop)
(push)
(assert (le x15 java.security.cert.X509CRLEntry))
(check-sat)
(pop)
(push)
(assert (le x15 org.bouncycastle.ocsp.BasicOCSPResp))
(check-sat)
(pop)
(push)
(assert (le x15 org.bouncycastle.asn1.ASN1Encodable))
(check-sat)
(pop)
(push)
(assert (le x15 org.bouncycastle.x509.AttributeCertificateIssuer))
(check-sat)
(pop)
(push)
(assert (le x15 org.pdfsam.console.business.dto.WorkDoneDataModel))
(check-sat)
(pop)
(push)
(assert (le x15 java.awt.geom.Ellipse2D))
(check-sat)
(pop)
(push)
(assert (le x15 org.pdfsam.console.business.dto.Transition))
(check-sat)
(pop)
(push)
(assert (le x15 com.lowagie.text.pdf.PdfCopy_currencysign_RefKey))
(check-sat)
(pop)
(push)
(assert (le x15 org.bouncycastle.ocsp.CertificateID))
(check-sat)
(pop)
(push)
(assert (le x15 java.awt.geom.AffineTransform))
(check-sat)
(pop)
(push)
(assert (le x15 java.security.cert.CertPath))
(check-sat)
(pop)
(push)
(assert (le x15 org.bouncycastle.math.ec.IntArray))
(check-sat)
(pop)
(push)
(assert (le x15 org.bouncycastle.crypto.params.ElGamalKeyParameters))
(check-sat)
(pop)
(push)
(assert (le x15 java.lang.Double))
(check-sat)
(pop)
(push)
(assert (le x15 java.security.cert.X509CRL))
(check-sat)
(pop)
(push)
(assert (le x15 java.security.spec.ECFieldFp))
(check-sat)
(pop)
(push)
(assert (le x15 org.bouncycastle.jce.provider.JDKDSAPublicKey))
(check-sat)
(pop)
(push)
(assert (le x15 org.dom4j.QName))
(check-sat)
(pop)
(push)
(assert (not (le x15 java.util.Vector)))
(check-sat)
(push)
(assert (le x15 java.util.AbstractList))
(check-sat)
(pop)
(pop)
(push)
(assert (le x15 java.awt.font.FontRenderContext))
(check-sat)
(pop)
(push)
(assert (le x15 java.awt.geom.Rectangle2D))
(check-sat)
(pop)
(push)
(assert (le x15 org.bouncycastle.jce.provider.JDKDSAPrivateKey))
(check-sat)
(pop)
(push)
(assert (le x15 java.awt.geom.Point2D))
(check-sat)
(pop)
(push)
(assert (le x15 java.util.Hashtable))
(check-sat)
(pop)
(push)
(assert (not (le x15 java.util.IdentityHashMap)))
(check-sat)
(push)
(assert (le x15 java.util.AbstractMap))
(check-sat)
(pop)
(pop)
(push)
(assert (le x15 org.bouncycastle.math.ec.ECFieldElement_currencysign_F2m))
(check-sat)
(pop)
(push)
(assert (le x15 javax.crypto.spec.RC2ParameterSpec))
(check-sat)
(pop)
(push)
(assert (le x15 java.security.cert.Certificate))
(check-sat)
(pop)
(push)
(assert (le x15 java.io.File))
(check-sat)
(pop)
(push)
(assert (le x15 org.bouncycastle.crypto.params.ElGamalParameters))
(check-sat)
(pop)
(push)
(assert (le x15 java.text.DecimalFormatSymbols))
(check-sat)
(pop)
(push)
(assert (le x15 java.lang.Long))
(check-sat)
(pop)
(push)
(assert (le x15 org.bouncycastle.crypto.params.DHKeyParameters))
(check-sat)
(pop)
(push)
(assert (not (le x15 javax.security.auth.x500.X500Principal)))
(check-sat)
(push)
(assert (not (le x15 org.bouncycastle.jce.provider.JCERSAPublicKey)))
(check-sat)
(push)
(assert (not (le x15 org.bouncycastle.jce.spec.GOST3410ParameterSpec)))
(check-sat)
(push)
(assert (not (le x15 java.awt.AlphaComposite)))
(check-sat)
(push)
(assert (not (le x15 java.security.spec.ECFieldF2m)))
(check-sat)
(push)
(assert (not (le x15 java.security.spec.ECPoint)))
(check-sat)
(push)
(assert (not (le x15 org.bouncycastle.math.ec.ECPoint)))
(check-sat)
(push)
(assert (not (le x15 java.util.AbstractMap)))
(check-sat)
(push)
(assert (not (le x15 org.bouncycastle.math.ec.SimpleBigDecimal)))
(check-sat)
(push)
(assert (not (le x15 java.text.AttributedCharacterIterator_currencysign_Attribute)))
(check-sat)
(push)
(assert (not (le x15 org.bouncycastle.x509.AttributeCertificateHolder)))
(check-sat)
(push)
(assert (not (le x15 java.security.Permission)))
(check-sat)
(push)
(assert (not (le x15 java.util.Calendar)))
(check-sat)
(push)
(assert (not (le x15 java.awt.Color)))
(check-sat)
(push)
(assert (not (le x15 java.net.URL)))
(check-sat)
(push)
(assert (not (le x15 org.pdfsam.console.business.dto.PdfFile)))
(check-sat)
(push)
(assert (not (le x15 org.apache.log4j.Priority)))
(check-sat)
(push)
(assert (not (le x15 org.pdfsam.console.business.dto.PageLabel)))
(check-sat)
(push)
(assert (not (le x15 java.awt.RenderingHints)))
(check-sat)
(push)
(assert (not (le x15 com.lowagie.text.pdf.PdfWriter_currencysign_PdfBody_currencysign_PdfCrossReference)))
(check-sat)
(push)
(assert (not (le x15 javax.crypto.spec.SecretKeySpec)))
(check-sat)
(push)
(assert (not (le x15 java.awt.RenderingHints_currencysign_Key)))
(check-sat)
(push)
(assert (not (le x15 org.bouncycastle.crypto.params.GOST3410Parameters)))
(check-sat)
(push)
(assert (not (le x15 org.bouncycastle.x509.X509V2AttributeCertificate)))
(check-sat)
(push)
(assert (not (le x15 org.bouncycastle.jce.provider.JDKDSAPublicKey)))
(check-sat)
(push)
(assert (not (le x15 java.security.spec.ECFieldFp)))
(check-sat)
(push)
(assert (not (le x15 org.bouncycastle.crypto.params.DHParameters)))
(check-sat)
(push)
(assert (not (le x15 org.bouncycastle.math.ec.IntArray)))
(check-sat)
(push)
(assert (not (le x15 java.awt.image.ColorModel)))
(check-sat)
(push)
(assert (not (le x15 java.security.cert.CertPath)))
(check-sat)
(push)
(assert (not (le x15 java.awt.geom.AffineTransform)))
(check-sat)
(push)
(assert (not (le x15 org.bouncycastle.ocsp.CertificateID)))
(check-sat)
(push)
(assert (not (le x15 com.lowagie.text.pdf.PdfCopy_currencysign_RefKey)))
(check-sat)
(push)
(assert (not (le x15 org.pdfsam.console.business.dto.Transition)))
(check-sat)
(push)
(assert (not (le x15 org.pdfsam.console.business.dto.WorkDoneDataModel)))
(check-sat)
(push)
(assert (not (le x15 org.bouncycastle.x509.AttributeCertificateIssuer)))
(check-sat)
(push)
(assert (not (le x15 java.lang.Boolean)))
(check-sat)
(push)
(assert (not (le x15 org.bouncycastle.asn1.ASN1Encodable)))
(check-sat)
(push)
(assert (not (le x15 org.bouncycastle.ocsp.BasicOCSPResp)))
(check-sat)
(push)
(assert (not (le x15 java.security.cert.X509CRLEntry)))
(check-sat)
(push)
(assert (not (le x15 java.util.Locale)))
(check-sat)
(push)
(assert (le x15 java.lang.Object))
(check-sat)
(push)
(assert (not (le x15 java.awt.Font)))
(check-sat)
(push)
(assert (not (le x15 java.text.DecimalFormatSymbols)))
(check-sat)
(push)
(assert (not (le x15 java.util.Date)))
(check-sat)
(push)
(assert (not (le x15 java.security.cert.Certificate)))
(check-sat)
(push)
(assert (not (le x15 org.bouncycastle.crypto.params.ElGamalParameters)))
(check-sat)
(push)
(assert (not (le x15 java.io.File)))
(check-sat)
(push)
(assert (not (le x15 javax.crypto.spec.RC2ParameterSpec)))
(check-sat)
(push)
(assert (not (le x15 java.awt.geom.Point2D)))
(check-sat)
(push)
(assert (not (le x15 org.bouncycastle.crypto.params.DSAParameters)))
(check-sat)
(push)
(assert (not (le x15 java.awt.BasicStroke)))
(check-sat)
(push)
(assert (not (le x15 org.bouncycastle.jce.provider.JDKDSAPrivateKey)))
(check-sat)
(push)
(assert (not (le x15 org.bouncycastle.jce.provider.JDKGOST3410PublicKey)))
(check-sat)
(push)
(assert (not (le x15 java.awt.font.FontRenderContext)))
(check-sat)
(push)
(assert (not (le x15 org.dom4j.QName)))
(check-sat)
(push)
(assert (not (le x15 org.bouncycastle.jce.spec.GOST3410PublicKeyParameterSetSpec)))
(check-sat)
(push)
(assert (not (le x15 com.lowagie.text.pdf.PdfSmartCopy_currencysign_ByteStore)))
(check-sat)
(push)
(assert (not (le x15 org.bouncycastle.asn1.x509.X509Extension)))
(check-sat)
(push)
(assert (not (le x15 org.bouncycastle.crypto.params.DSAValidationParameters)))
(check-sat)
(push)
(assert (not (le x15 java.lang.Character)))
(check-sat)
(push)
(assert (not (le x15 java.lang.String)))
(check-sat)
(push)
(assert (not (le x15 org.bouncycastle.crypto.params.GOST3410ValidationParameters)))
(check-sat)
(push)
(assert (not (le x15 org.bouncycastle.jce.provider.JCERSAPrivateKey)))
(check-sat)
(push)
(assert (not (le x15 org.bouncycastle.ocsp.RespID)))
(check-sat)
(push)
(assert (not (le x15 java.security.spec.EllipticCurve)))
(check-sat)
(push)
(assert (not (le x15 org.jaxen.QualifiedName)))
(check-sat)
(push)
(assert (not (le x15 org.bouncycastle.jce.spec.ECParameterSpec)))
(check-sat)
(push)
(assert (not (le x15 jcmdline.dto.PdfFile)))
(check-sat)
(push)
(assert (not (le x15 org.bouncycastle.jce.provider.JCEECPrivateKey)))
(check-sat)
(push)
(assert (not (le x15 java.net.URI)))
(check-sat)
(push)
(assert (not (le x15 org.jaxen.expr.IdentitySet_currencysign_IdentityWrapper)))
(check-sat)
(push)
(assert (not (le x15 org.bouncycastle.jce.provider.PKIXNameConstraintValidator)))
(check-sat)
(push)
(assert (not (le x15 org.dom4j.tree.ConcurrentReaderHashMap_currencysign_Entry)))
(check-sat)
(push)
(assert (not (le x15 org.bouncycastle.crypto.params.DHValidationParameters)))
(check-sat)
(push)
(assert (not (le x15 org.bouncycastle.jce.provider.JCEECPublicKey)))
(check-sat)
(push)
(assert (le x2 java.lang.StringBuffer))
(check-sat)
(pop)
(push)
(assert (not (le x2 java.lang.StringBuffer)))
(check-sat)
(pop)
(push)
(assert (le x6 com.lowagie.text.pdf.PdfObject))
(check-sat)
(push)
(assert (le x8 java.lang.String))
(check-sat)
(pop)
(push)
(assert (not (le x8 java.lang.String)))
(check-sat)
(push)
(assert (le x12 java.lang.String))
(check-sat)
(push)
(assert (le x13 java.lang.StringBuffer))
(check-sat)
(push)
(assert (le x3 java.lang.StringBuffer))
(check-sat)
(pop)
(push)
(assert (not (le x3 java.lang.StringBuffer)))
(check-sat)
(pop)
(pop)
(push)
(assert (not (le x13 java.lang.StringBuffer)))
(check-sat)
(pop)
(pop)
(push)
(assert (not (le x12 java.lang.String)))
(check-sat)
(pop)
(pop)
(pop)
(push)
(assert (not (le x6 com.lowagie.text.pdf.PdfObject)))
(check-sat)
(pop)
(pop)
(pop)
(pop)
(pop)
(pop)
(pop)
(pop)
(pop)
(pop)
(pop)
(pop)
(pop)
(pop)
(pop)
(pop)
(pop)
(pop)
(pop)
(pop)
(pop)
(pop)
(pop)
(pop)
(pop)
(pop)
(pop)
(pop)
(pop)
(pop)
(pop)
(pop)
(pop)
(pop)
(pop)
(pop)
(pop)
(pop)
(pop)
(pop)
(pop)
(pop)
(pop)
(pop)
(pop)
(pop)
(pop)
(pop)
(pop)
(pop)
(pop)
(pop)
(pop)
(pop)
(pop)
(pop)
(pop)
(pop)
(pop)
(pop)
(pop)
(pop)
(pop)
(pop)
(pop)
(pop)
(pop)
(pop)
(pop)
(pop)
(pop)
(pop)
(pop)
(pop)
(pop)
(pop)
(pop)
(push)
(assert (le x15 org.bouncycastle.jce.provider.JCEECPublicKey))
(check-sat)
(pop)
(push)
(assert (le x15 java.util.Calendar))
(check-sat)
(push)
(assert (not (le x15 java.util.GregorianCalendar)))
(check-sat)
(pop)
(pop)
(push)
(assert (le x15 org.dom4j.tree.ConcurrentReaderHashMap_currencysign_Entry))
(check-sat)
(pop)
(push)
(assert (le x15 org.jaxen.expr.IdentitySet_currencysign_IdentityWrapper))
(check-sat)
(pop)
(push)
(assert (le x15 org.bouncycastle.jce.provider.JCEECPrivateKey))
(check-sat)
(pop)
(push)
(assert (le x15 jcmdline.dto.PdfFile))
(check-sat)
(pop)
(push)
(assert (le x15 java.text.SimpleDateFormat))
(check-sat)
(pop)
(push)
(assert (le x15 org.bouncycastle.ocsp.RespID))
(check-sat)
(pop)
(push)
(assert (le x15 org.bouncycastle.crypto.params.GOST3410ValidationParameters))
(check-sat)
(pop)
(push)
(assert (le x15 java.lang.String))
(check-sat)
(pop)
(push)
(assert (le x15 java.util.IdentityHashMap))
(check-sat)
(pop)
(push)
(assert (le x15 org.bouncycastle.crypto.params.DSAValidationParameters))
(check-sat)
(pop)
(push)
(assert (le x15 org.bouncycastle.asn1.x509.X509Extension))
(check-sat)
(pop)
(push)
(assert (le x15 java.util.AbstractSet))
(check-sat)
(pop)
(push)
(assert (le x15 org.bouncycastle.cms.RecipientId))
(check-sat)
(pop)
(push)
(assert (le x15 javax.crypto.spec.SecretKeySpec))
(check-sat)
(pop)
(push)
(assert (le x15 com.lowagie.text.pdf.PdfWriter_currencysign_PdfBody_currencysign_PdfCrossReference))
(check-sat)
(pop)
(push)
(assert (le x15 java.lang.Float))
(check-sat)
(pop)
(push)
(assert (le x15 org.apache.log4j.Priority))
(check-sat)
(pop)
(push)
(assert (le x15 org.pdfsam.console.business.dto.PageLabel))
(check-sat)
(pop)
(push)
(assert (le x15 org.pdfsam.console.business.dto.PdfFile))
(check-sat)
(pop)
(push)
(assert (le x15 java.awt.Color))
(check-sat)
(pop)
(push)
(assert (le x15 java.math.BigInteger))
(check-sat)
(pop)
(push)
(assert (le x15 org.bouncycastle.math.ec.ECFieldElement_currencysign_Fp))
(check-sat)
(pop)
(push)
(assert (le x15 java.awt.geom.RoundRectangle2D))
(check-sat)
(pop)
(push)
(assert (le x15 java.security.spec.ECPoint))
(check-sat)
(pop)
(push)
(assert (le x15 java.security.spec.ECFieldF2m))
(check-sat)
(pop)
(push)
(assert (le x15 java.awt.AlphaComposite))
(check-sat)
(pop)
(push)
(assert (le x15 org.bouncycastle.jce.provider.JCERSAPublicKey))
(check-sat)
(pop)
(push)
(assert (le x15 java.text.DateFormat))
(check-sat)
(push)
(assert (not (le x15 java.text.SimpleDateFormat)))
(check-sat)
(pop)
(pop)
(push)
(assert (le x15 java.text.DecimalFormat))
(check-sat)
(pop)
(push)
(assert (le x15 java.lang.Boolean))
(check-sat)
(pop)
(push)
(assert (le x15 java.util.SimpleTimeZone))
(check-sat)
(pop)
(push)
(assert (le x15 java.awt.image.ColorModel))
(check-sat)
(pop)
(push)
(assert (le x15 java.nio.ByteBuffer))
(check-sat)
(pop)
(push)
(assert (le x15 java.util.GregorianCalendar))
(check-sat)
(pop)
(push)
(assert (le x15 org.bouncycastle.crypto.params.DHParameters))
(check-sat)
(pop)
(push)
(assert (le x15 java.util.Vector))
(check-sat)
(pop)
(push)
(assert (le x15 org.bouncycastle.x509.X509V2AttributeCertificate))
(check-sat)
(pop)
(push)
(assert (le x15 org.bouncycastle.crypto.params.GOST3410Parameters))
(check-sat)
(pop)
(push)
(assert (le x15 java.awt.RenderingHints_currencysign_Key))
(check-sat)
(pop)
(push)
(assert (le x15 org.bouncycastle.cms.SignerId))
(check-sat)
(pop)
(push)
(assert (le x15 java.lang.Integer))
(check-sat)
(pop)
(push)
(assert (le x15 org.bouncycastle.jce.provider.JDKGOST3410PublicKey))
(check-sat)
(pop)
(push)
(assert (le x15 java.awt.BasicStroke))
(check-sat)
(pop)
(push)
(assert (le x15 org.bouncycastle.crypto.params.DSAParameters))
(check-sat)
(pop)
(push)
(assert (le x15 java.awt.Dimension))
(check-sat)
(pop)
(push)
(assert (le x15 java.util.Date))
(check-sat)
(pop)
(push)
(assert (le x15 java.awt.Font))
(check-sat)
(pop)
(push)
(assert (le x15 java.util.Locale))
(check-sat)
(pop)
(push)
(assert (le x15 org.bouncycastle.math.ec.ECCurve_currencysign_F2m))
(check-sat)
(pop)
(push)
(assert (le x15 org.bouncycastle.crypto.params.DHValidationParameters))
(check-sat)
(pop)
(push)
(assert (le x15 org.bouncycastle.jce.provider.PKIXNameConstraintValidator))
(check-sat)
(pop)
(push)
(assert (le x15 java.net.URI))
(check-sat)
(pop)
(push)
(assert (le x15 com.lowagie.text.pdf.PdfName))
(check-sat)
(pop)
(push)
(assert (le x15 org.bouncycastle.jce.spec.ECParameterSpec))
(check-sat)
(pop)
(push)
(assert (le x15 java.security.spec.EllipticCurve))
(check-sat)
(pop)
(push)
(assert (le x15 org.jaxen.QualifiedName))
(check-sat)
(pop)
(push)
(assert (le x15 org.bouncycastle.jce.provider.JCERSAPrivateKey))
(check-sat)
(pop)
(push)
(assert (le x15 java.lang.Character))
(check-sat)
(pop)
(push)
(assert (le x15 com.lowagie.text.pdf.PdfSmartCopy_currencysign_ByteStore))
(check-sat)
(pop)
(push)
(assert (le x15 org.bouncycastle.jce.spec.GOST3410PublicKeyParameterSetSpec))
(check-sat)
(pop)
(push)
(assert (le x15 java.lang.reflect.Method))
(check-sat)
(pop)
(pop)
(push)
(assert (not (le x15 java.lang.Object)))
(check-sat)
(pop)
(pop)
(push)
(assert (le x15 com.lowagie.text.pdf.PdfName))
(check-sat)
(pop)
(push)
(assert (not (le x15 com.lowagie.text.pdf.PdfName)))
(check-sat)
(push)
(assert (le x7 java.util.HashMap))
(check-sat)
(push)
(assert (le x2 java.lang.StringBuffer))
(check-sat)
(pop)
(push)
(assert (not (le x2 java.lang.StringBuffer)))
(check-sat)
(push)
(assert (le x12 java.lang.String))
(check-sat)
(pop)
(push)
(assert (not (le x12 java.lang.String)))
(check-sat)
(pop)
(pop)
(pop)
(push)
(assert (not (le x7 java.util.HashMap)))
(check-sat)
(push)
(assert (not (le x15 com.lowagie.text.pdf.PdfDictionary)))
(check-sat)
(push)
(assert (not (le x15 com.lowagie.text.pdf.PdfString)))
(check-sat)
(push)
(assert (le x15 com.lowagie.text.pdf.PdfObject))
(check-sat)
(push)
(assert (not (le x15 com.lowagie.text.pdf.PdfLiteral)))
(check-sat)
(push)
(assert (not (le x15 com.lowagie.text.pdf.PdfArray)))
(check-sat)
(pop)
(pop)
(pop)
(pop)
(pop)
(push)
(assert (le x15 com.lowagie.text.pdf.PdfWriter_currencysign_PdfTrailer))
(check-sat)
(pop)
(push)
(assert (le x15 com.lowagie.text.pdf.PRStream))
(check-sat)
(pop)
(push)
(assert (le x15 com.lowagie.text.pdf.PdfLiteral))
(check-sat)
(pop)
(push)
(assert (not (le x15 com.lowagie.text.pdf.PdfDashPattern)))
(check-sat)
(push)
(assert (le x15 com.lowagie.text.pdf.PdfArray))
(check-sat)
(pop)
(pop)
(push)
(assert (not (le x15 com.lowagie.text.pdf.PdfStream)))
(check-sat)
(push)
(assert (not (le x15 com.lowagie.text.pdf.PdfOutline)))
(check-sat)
(push)
(assert (not (le x15 com.lowagie.text.pdf.PdfWriter_currencysign_PdfTrailer)))
(check-sat)
(push)
(assert (le x15 com.lowagie.text.pdf.PdfDictionary))
(check-sat)
(pop)
(pop)
(pop)
(pop)
(push)
(assert (le x15 com.lowagie.text.pdf.PdfOutline))
(check-sat)
(pop)
(push)
(assert (le x15 com.lowagie.text.pdf.PRIndirectReference))
(check-sat)
(pop)
(push)
(assert (not (le x15 com.lowagie.text.pdf.PdfEFStream)))
(check-sat)
(push)
(assert (not (le x15 com.lowagie.text.pdf.PRStream)))
(check-sat)
(push)
(assert (le x15 com.lowagie.text.pdf.PdfStream))
(check-sat)
(pop)
(pop)
(pop)
(push)
(assert (le x15 com.lowagie.text.pdf.PdfString))
(check-sat)
(pop)
(push)
(assert (le x15 com.lowagie.text.pdf.PdfEFStream))
(check-sat)
(pop)
(push)
(assert (le x15 com.lowagie.text.pdf.PdfDashPattern))
(check-sat)
(pop)
(pop)
(pop)
(pop)
(pop)
(push)
(assert (not (le x6 com.lowagie.text.pdf.PdfObject)))
(check-sat)
(pop)
(pop)
(pop)
(pop)
(push)
(assert (not (le x11 java.lang.StringBuffer)))
(check-sat)
(pop)
(pop)
(push)
(assert (not (le x12 java.lang.String)))
(check-sat)
(pop)
